50
14027

218 919
385 500
382 569
297 211
255 980
112 378
636 878
708 83
637 664
266 986
732 14
849 952
944 90
992 421
155 940
54 429
625 881
554 744
310 968
185 608
969 312
848 394
190 781
816 209
813 563
274 364
967 302
49 204
152 884
867 266
726 620
244 577
454 738
210 861
987 43
666 458
932 575
537 927
888 917
443 804
841 475
289 716
172 535
720 264
990 568
243 730
341 969
692 936
6 857
95 893
